;  time  = 600
;  terms = 85
;  score = 0.6487603305785123
(set-logic QF_FP)
(declare-const x0 (_ FloatingPoint 8 24))
(declare-const x1 (_ FloatingPoint 8 24))
(declare-const x2 (_ FloatingPoint 8 24))
(declare-const x3 (_ FloatingPoint 8 24))
(declare-const x4 (_ FloatingPoint 8 24))
(declare-const x5 (_ FloatingPoint 8 24))
(declare-const x6 (_ FloatingPoint 8 24))
(declare-const x7 (_ FloatingPoint 8 24))
(declare-const x8 (_ FloatingPoint 8 24))
(declare-const x9 (_ FloatingPoint 8 24))
(declare-const x10 (_ FloatingPoint 8 24))
(declare-const x11 (_ FloatingPoint 8 24))
(declare-const x12 (_ FloatingPoint 8 24))
(declare-const x13 (_ FloatingPoint 8 24))
(declare-const x14 (_ FloatingPoint 8 24))
(assert (fp.isSubnormal (fp.add RNE (fp.add RNE (fp.add RNE (fp.abs (fp.mul RNE x12 x13)) x7) (fp.neg (fp.add RNE (fp.sub RNE (fp.mul RNE (fp.neg (fp.neg x4)) (fp.neg (fp.abs (fp.sub RNE x7 x7)))) (fp.add RNE (fp.mul RNE x11 x0) (fp.sub RNE (fp.neg x13) (fp.abs (fp.add RNE x9 x13))))) (fp.mul RNE x13 (fp.abs x14))))) (fp.abs (fp.abs (fp.sub RNE (fp.sub RNE (fp.add RNE (fp.sub RNE x6 x5) (fp.abs (fp.mul RNE (fp.sub RNE x8 x12) (fp.add RNE x7 x10)))) (fp.mul RNE (fp.sub RNE (fp.add RNE (fp.mul RNE x6 x11) (fp.abs x13)) (fp.abs (fp.sub RNE x14 x11))) (fp.mul RNE x4 (fp.mul RNE x12 x7)))) (fp.abs (fp.sub RNE (fp.mul RNE x13 (fp.mul RNE (fp.mul RNE x14 x5) (fp.neg x3))) (fp.abs (fp.add RNE x2 (fp.add RNE x14 x11)))))))))))
(check-sat)